
Gurobi 7.0.1 (linux64, Python) logging started Thu Nov  9 17:39:17 2017

Optimize a model with 4 rows, 2 columns and 6 nonzeros
Coefficient statistics:
  Matrix range     [1e+00, 2e+00]
  Objective range  [4e+00, 1e+01]
  Bounds range     [0e+00, 0e+00]
  RHS range        [6e+00, 2e+01]
Presolve removed 2 rows and 0 columns
Presolve time: 0.05s
Presolved: 2 rows, 2 columns, 4 nonzeros

Iteration    Objective       Primal Inf.    Dual Inf.      Time
       0    9.2000000e+01   4.500000e+00   0.000000e+00      0s
       1    7.2000000e+01   0.000000e+00   0.000000e+00      0s

Solved in 1 iterations and 0.10 seconds
Optimal objective  7.200000000e+01
Optimize a model with 4 rows, 2 columns and 6 nonzeros
Coefficient statistics:
  Matrix range     [1e+00, 2e+00]
  Objective range  [4e+00, 1e+01]
  Bounds range     [0e+00, 0e+00]
  RHS range        [6e+00, 2e+01]
Presolve removed 2 rows and 0 columns
Presolve time: 0.01s
Presolved: 2 rows, 2 columns, 4 nonzeros

Iteration    Objective       Primal Inf.    Dual Inf.      Time
       0    9.2000000e+01   4.500000e+00   0.000000e+00      0s
       1    7.2000000e+01   0.000000e+00   0.000000e+00      0s

Solved in 1 iterations and 0.01 seconds
Optimal objective  7.200000000e+01
